proyfinal/src/viki/013/experimentInOfficeAgust.take6.output/6d4ac4b1-990a-4ee3-a812-f594bc4ff5e6.als.dat
{'cnf.clauses': '118081',
 'cnf.totvars': '69608',
 'conflict literals': '207',
 'conflicts': '43',
 'decisions': '2570',
 'memused.mb': '18.29',
 'outcome': 'UNSAT',
 'propagations': '78106',
 'restarts': '1',
 'solver.msecs': 35,
 'task.msecs': 90}
