proyfinal/src/viki/013/experimentInOfficeAgust.take6.output/6d4ac4b1-990a-4ee3-a812-f594bc4ff5e6.als.out
Reading from standard input... Use '--help' for help.
============================[ Problem Statistics ]=============================
|                                                                             |
|  Number of variables:         69608                                         |
|  Number of clauses:          118081                                         |
|  Parse time:                   0.03 s                                       |
|                                                                             |
============================[ Search Statistics ]==============================
| Conflicts |          ORIGINAL         |          LEARNT          | Progress |
|           |    Vars  Clauses Literals |    Limit  Clauses Lit/Cl |          |
===============================================================================
===============================================================================
restarts              : 1
conflicts             : 43             (1200 /sec)
decisions             : 2570           (0.00 % random) (71750 /sec)
propagations          : 78106          (2180575 /sec)
conflict literals     : 207            (20.38 % deleted)
Memory used           : 18.29 MB
CPU time              : 0.035819 s

UNSATISFIABLE
